491739
491739
491739
491739
485222
485222
485222
478662
478109
478109
476149
476034
475101
458277
455507
447995
438025
438025
438025
438025
438025
438025
433622
433622
433622
433622
433622
433622
422892
422892
422789
420393
415960
402013
402013
402013
399602
399602
399602
399602
399602
393658
386479
386479
375833
375833
375833
375833
375833
375833
375168
371689
371689
371689
371689
371689
370687
370687
370687
363006
357302
357302
357302
357302
357302
357302
357302
357302
357302
356446
356446
354061
354061
354061
354061
354061
344409
344409
344409
344409
340148
340148
340148
340148
340148
340148
340148
340148
340148
340148
340148
340148
336486
336486
336486
336486
336486
336486
335220
335220
